p cnf 441 1
441 0
w 1 0.692062
w 2 1 1
w 2 -1 0
w 3 2 1
w 3 -2 0
w 4 3 1
w 4 -3 0
w 5 4 1
w 5 -4 0
w 6 5 1
w 6 -5 0
w 7 6 0
w 7 -6 1
w 8 7 0.510485
w 8 -7 0.622226
w 9 8 0.636528
w 9 -8 0.984041
w 10 9 0
w 10 -9 1
w 11 10 0
w 11 -10 1
w 12 11 0
w 12 -11 1
w 13 12 0
w 13 -12 1
w 14 13 0.642069
w 14 -13 0.142857
w 15 14 1
w 15 -14 0
w 16 15 1
w 16 -15 0
w 17 16 0.250455
w 17 -16 0.23409
w 18 17 0.553785
w 18 -17 0.843113
w 19 18 0.573507
w 19 -18 0.990073
w 20 19 0.502769
w 20 -19 0.500558
w 21 20 0
w 21 -20 1
w 22 1 0
w 22 -1 1
w 23 22 2 1
w 23 22 -2 1
w 23 -22 2 0
w 23 -22 -2 0
w 24 23 3 0
w 24 23 -3 1
w 24 -23 3 1
w 24 -23 -3 1
w 25 24 4 0
w 25 24 -4 0
w 25 -24 4 1
w 25 -24 -4 0
w 26 25 5 1
w 26 25 -5 0
w 26 -25 5 0
w 26 -25 -5 0
w 27 26 6 0
w 27 26 -6 0
w 27 -26 6 1
w 27 -26 -6 1
w 28 27 7 0.131245
w 28 27 -7 0.810204
w 28 -27 7 0.573622
w 28 -27 -7 0.176974
w 29 28 8 0.659559
w 29 28 -8 0.916966
w 29 -28 8 0.315384
w 29 -28 -8 0.801882
w 30 29 9 1
w 30 29 -9 1
w 30 -29 9 0
w 30 -29 -9 1
w 31 30 10 0.804797
w 31 30 -10 0.479685
w 31 -30 10 0.0635509
w 31 -30 -10 0.289799
w 32 31 11 1
w 32 31 -11 1
w 32 -31 11 0
w 32 -31 -11 0
w 33 32 12 1
w 33 32 -12 0
w 33 -32 12 1
w 33 -32 -12 0
w 34 33 13 0
w 34 33 -13 0
w 34 -33 13 1
w 34 -33 -13 0
w 35 34 14 1
w 35 34 -14 0
w 35 -34 14 1
w 35 -34 -14 0
w 36 35 15 0
w 36 35 -15 1
w 36 -35 15 1
w 36 -35 -15 0
w 37 36 16 1
w 37 36 -16 0
w 37 -36 16 1
w 37 -36 -16 0
w 38 37 17 1
w 38 37 -17 1
w 38 -37 17 0
w 38 -37 -17 1
w 39 38 18 1
w 39 38 -18 0
w 39 -38 18 1
w 39 -38 -18 0
w 40 39 19 0
w 40 39 -19 1
w 40 -39 19 0
w 40 -39 -19 0
w 41 40 20 0.0104684
w 41 40 -20 0.792711
w 41 -40 20 0.461316
w 41 -40 -20 0.386904
w 42 41 21 0
w 42 41 -21 1
w 42 -41 21 1
w 42 -41 -21 1
w 43 22 0
w 43 -22 1
w 44 43 23 1
w 44 43 -23 1
w 44 -43 23 0
w 44 -43 -23 1
w 45 44 24 0.473988
w 45 44 -24 0.622562
w 45 -44 24 0.436733
w 45 -44 -24 0.775042
w 46 45 25 1
w 46 45 -25 1
w 46 -45 25 1
w 46 -45 -25 0
w 47 46 26 0.373486
w 47 46 -26 0.0555756
w 47 -46 26 0.697807
w 47 -46 -26 0.383954
w 48 47 27 0.159123
w 48 47 -27 0.770859
w 48 -47 27 0.0176904
w 48 -47 -27 0.0646774
w 49 48 28 1
w 49 48 -28 0
w 49 -48 28 1
w 49 -48 -28 1
w 50 49 29 0
w 50 49 -29 0
w 50 -49 29 1
w 50 -49 -29 1
w 51 50 30 0
w 51 50 -30 1
w 51 -50 30 1
w 51 -50 -30 1
w 52 51 31 0
w 52 51 -31 1
w 52 -51 31 0
w 52 -51 -31 1
w 53 52 32 0
w 53 52 -32 1
w 53 -52 32 1
w 53 -52 -32 0
w 54 53 33 0.971064
w 54 53 -33 0.715603
w 54 -53 33 0.793924
w 54 -53 -33 0.0357415
w 55 54 34 0.763992
w 55 54 -34 0.296874
w 55 -54 34 0.689798
w 55 -54 -34 0.109447
w 56 55 35 1
w 56 55 -35 0
w 56 -55 35 0
w 56 -55 -35 0
w 57 56 36 1
w 57 56 -36 0
w 57 -56 36 1
w 57 -56 -36 1
w 58 57 37 1
w 58 57 -37 0
w 58 -57 37 0
w 58 -57 -37 0
w 59 58 38 0
w 59 58 -38 1
w 59 -58 38 0
w 59 -58 -38 0
w 60 59 39 0
w 60 59 -39 1
w 60 -59 39 0
w 60 -59 -39 0
w 61 60 40 0
w 61 60 -40 0
w 61 -60 40 0
w 61 -60 -40 1
w 62 61 41 0
w 62 61 -41 1
w 62 -61 41 1
w 62 -61 -41 1
w 63 62 42 0
w 63 62 -42 0
w 63 -62 42 0
w 63 -62 -42 1
w 64 43 0.803114
w 64 -43 0.182476
w 65 64 44 0
w 65 64 -44 0
w 65 -64 44 1
w 65 -64 -44 1
w 66 65 45 0
w 66 65 -45 1
w 66 -65 45 0
w 66 -65 -45 1
w 67 66 46 0
w 67 66 -46 0
w 67 -66 46 1
w 67 -66 -46 0
w 68 67 47 0
w 68 67 -47 1
w 68 -67 47 1
w 68 -67 -47 0
w 69 68 48 0
w 69 68 -48 0
w 69 -68 48 1
w 69 -68 -48 0
w 70 69 49 1
w 70 69 -49 0
w 70 -69 49 0
w 70 -69 -49 1
w 71 70 50 0
w 71 70 -50 1
w 71 -70 50 1
w 71 -70 -50 0
w 72 71 51 1
w 72 71 -51 1
w 72 -71 51 1
w 72 -71 -51 0
w 73 72 52 0.211671
w 73 72 -52 0.0207928
w 73 -72 52 0.708562
w 73 -72 -52 0.999462
w 74 73 53 1
w 74 73 -53 0
w 74 -73 53 0
w 74 -73 -53 1
w 75 74 54 1
w 75 74 -54 0
w 75 -74 54 1
w 75 -74 -54 1
w 76 75 55 1
w 76 75 -55 0
w 76 -75 55 1
w 76 -75 -55 0
w 77 76 56 1
w 77 76 -56 1
w 77 -76 56 0
w 77 -76 -56 1
w 78 77 57 1
w 78 77 -57 0
w 78 -77 57 1
w 78 -77 -57 0
w 79 78 58 1
w 79 78 -58 0
w 79 -78 58 1
w 79 -78 -58 0
w 80 79 59 1
w 80 79 -59 0
w 80 -79 59 0
w 80 -79 -59 0
w 81 80 60 1
w 81 80 -60 0
w 81 -80 60 0
w 81 -80 -60 0
w 82 81 61 1
w 82 81 -61 1
w 82 -81 61 1
w 82 -81 -61 0
w 83 82 62 1
w 83 82 -62 1
w 83 -82 62 0
w 83 -82 -62 1
w 84 83 63 0
w 84 83 -63 1
w 84 -83 63 1
w 84 -83 -63 0
w 85 64 0
w 85 -64 1
w 86 85 65 1
w 86 85 -65 1
w 86 -85 65 0
w 86 -85 -65 1
w 87 86 66 0.191359
w 87 86 -66 0.280537
w 87 -86 66 0.131435
w 87 -86 -66 0.821384
w 88 87 67 0.348154
w 88 87 -67 0.275439
w 88 -87 67 0.474485
w 88 -87 -67 0.21785
w 89 88 68 0.0992746
w 89 88 -68 0.21304
w 89 -88 68 0.144953
w 89 -88 -68 0.96752
w 90 89 69 0
w 90 89 -69 0
w 90 -89 69 0
w 90 -89 -69 1
w 91 90 70 0
w 91 90 -70 0
w 91 -90 70 1
w 91 -90 -70 0
w 92 91 71 0.24984
w 92 91 -71 0.362816
w 92 -91 71 0.944699
w 92 -91 -71 0.148131
w 93 92 72 1
w 93 92 -72 1
w 93 -92 72 0
w 93 -92 -72 0
w 94 93 73 0
w 94 93 -73 0
w 94 -93 73 1
w 94 -93 -73 0
w 95 94 74 0
w 95 94 -74 1
w 95 -94 74 0
w 95 -94 -74 0
w 96 95 75 0
w 96 95 -75 0
w 96 -95 75 1
w 96 -95 -75 0
w 97 96 76 0.366946
w 97 96 -76 0.666939
w 97 -96 76 0.986211
w 97 -96 -76 0.389701
w 98 97 77 0
w 98 97 -77 1
w 98 -97 77 0
w 98 -97 -77 1
w 99 98 78 1
w 99 98 -78 1
w 99 -98 78 1
w 99 -98 -78 0
w 100 99 79 1
w 100 99 -79 0
w 100 -99 79 0
w 100 -99 -79 0
w 101 100 80 0
w 101 100 -80 1
w 101 -100 80 0
w 101 -100 -80 0
w 102 101 81 0.285236
w 102 101 -81 0.952386
w 102 -101 81 0.155672
w 102 -101 -81 0.62466
w 103 102 82 0.522619
w 103 102 -82 0.2916
w 103 -102 82 0.78725
w 103 -102 -82 0.91232
w 104 103 83 0.023301
w 104 103 -83 0.664837
w 104 -103 83 0.527664
w 104 -103 -83 0.407483
w 105 104 84 0.343281
w 105 104 -84 0.0712319
w 105 -104 84 0.65378
w 105 -104 -84 0.202403
w 106 85 1
w 106 -85 0
w 107 106 86 1
w 107 106 -86 1
w 107 -106 86 1
w 107 -106 -86 0
w 108 107 87 0
w 108 107 -87 1
w 108 -107 87 0
w 108 -107 -87 1
w 109 108 88 1
w 109 108 -88 0
w 109 -108 88 1
w 109 -108 -88 0
w 110 109 89 0
w 110 109 -89 1
w 110 -109 89 0
w 110 -109 -89 1
w 111 110 90 0
w 111 110 -90 1
w 111 -110 90 0
w 111 -110 -90 1
w 112 111 91 0
w 112 111 -91 1
w 112 -111 91 0
w 112 -111 -91 0
w 113 112 92 0.290611
w 113 112 -92 0.846004
w 113 -112 92 0.46706
w 113 -112 -92 0.986002
w 114 113 93 1
w 114 113 -93 0
w 114 -113 93 0
w 114 -113 -93 0
w 115 114 94 0
w 115 114 -94 1
w 115 -114 94 0
w 115 -114 -94 0
w 116 115 95 0.788737
w 116 115 -95 0.0265753
w 116 -115 95 0.551533
w 116 -115 -95 0.0290416
w 117 116 96 0.933692
w 117 116 -96 0.797011
w 117 -116 96 0.332968
w 117 -116 -96 0.287379
w 118 117 97 0.761137
w 118 117 -97 0.294847
w 118 -117 97 0.221915
w 118 -117 -97 0.552008
w 119 118 98 1
w 119 118 -98 0
w 119 -118 98 1
w 119 -118 -98 0
w 120 119 99 0.373521
w 120 119 -99 0.202255
w 120 -119 99 0.91615
w 120 -119 -99 0.997175
w 121 120 100 0.390441
w 121 120 -100 0.958693
w 121 -120 100 0.978287
w 121 -120 -100 0.876155
w 122 121 101 1
w 122 121 -101 1
w 122 -121 101 1
w 122 -121 -101 0
w 123 122 102 0
w 123 122 -102 1
w 123 -122 102 0
w 123 -122 -102 1
w 124 123 103 1
w 124 123 -103 0
w 124 -123 103 1
w 124 -123 -103 1
w 125 124 104 1
w 125 124 -104 1
w 125 -124 104 0
w 125 -124 -104 0
w 126 125 105 1
w 126 125 -105 1
w 126 -125 105 0
w 126 -125 -105 1
w 127 106 0
w 127 -106 1
w 128 127 107 1
w 128 127 -107 1
w 128 -127 107 0
w 128 -127 -107 1
w 129 128 108 0
w 129 128 -108 0
w 129 -128 108 1
w 129 -128 -108 1
w 130 129 109 0.411589
w 130 129 -109 0.235237
w 130 -129 109 0.507321
w 130 -129 -109 0.810795
w 131 130 110 0
w 131 130 -110 1
w 131 -130 110 0
w 131 -130 -110 1
w 132 131 111 1
w 132 131 -111 1
w 132 -131 111 1
w 132 -131 -111 0
w 133 132 112 0
w 133 132 -112 1
w 133 -132 112 0
w 133 -132 -112 0
w 134 133 113 0
w 134 133 -113 1
w 134 -133 113 0
w 134 -133 -113 1
w 135 134 114 1
w 135 134 -114 1
w 135 -134 114 1
w 135 -134 -114 0
w 136 135 115 1
w 136 135 -115 1
w 136 -135 115 0
w 136 -135 -115 0
w 137 136 116 0.787533
w 137 136 -116 0.626493
w 137 -136 116 0.372779
w 137 -136 -116 0.886427
w 138 137 117 1
w 138 137 -117 0
w 138 -137 117 1
w 138 -137 -117 0
w 139 138 118 1
w 139 138 -118 0
w 139 -138 118 0
w 139 -138 -118 0
w 140 139 119 0
w 140 139 -119 0
w 140 -139 119 1
w 140 -139 -119 0
w 141 140 120 0
w 141 140 -120 1
w 141 -140 120 0
w 141 -140 -120 0
w 142 141 121 0.670785
w 142 141 -121 0.162675
w 142 -141 121 0.11464
w 142 -141 -121 0.0672563
w 143 142 122 1
w 143 142 -122 0
w 143 -142 122 0
w 143 -142 -122 0
w 144 143 123 0
w 144 143 -123 1
w 144 -143 123 0
w 144 -143 -123 1
w 145 144 124 0.84118
w 145 144 -124 0.839304
w 145 -144 124 0.0309801
w 145 -144 -124 0.729011
w 146 145 125 1
w 146 145 -125 0
w 146 -145 125 0
w 146 -145 -125 0
w 147 146 126 0
w 147 146 -126 1
w 147 -146 126 0
w 147 -146 -126 0
w 148 127 0
w 148 -127 1
w 149 148 128 0
w 149 148 -128 0
w 149 -148 128 1
w 149 -148 -128 1
w 150 149 129 1
w 150 149 -129 1
w 150 -149 129 0
w 150 -149 -129 0
w 151 150 130 1
w 151 150 -130 0
w 151 -150 130 1
w 151 -150 -130 0
w 152 151 131 0.164254
w 152 151 -131 0.566945
w 152 -151 131 0.482363
w 152 -151 -131 0.7904
w 153 152 132 0.460433
w 153 152 -132 0.884803
w 153 -152 132 0.325034
w 153 -152 -132 0.0595931
w 154 153 133 0
w 154 153 -133 1
w 154 -153 133 1
w 154 -153 -133 1
w 155 154 134 1
w 155 154 -134 0
w 155 -154 134 1
w 155 -154 -134 0
w 156 155 135 1
w 156 155 -135 0
w 156 -155 135 0
w 156 -155 -135 0
w 157 156 136 1
w 157 156 -136 0
w 157 -156 136 0
w 157 -156 -136 0
w 158 157 137 0.920214
w 158 157 -137 0.753229
w 158 -157 137 0.559836
w 158 -157 -137 0.771771
w 159 158 138 0
w 159 158 -138 0
w 159 -158 138 0
w 159 -158 -138 1
w 160 159 139 0
w 160 159 -139 0
w 160 -159 139 0
w 160 -159 -139 1
w 161 160 140 0
w 161 160 -140 1
w 161 -160 140 0
w 161 -160 -140 1
w 162 161 141 0
w 162 161 -141 1
w 162 -161 141 1
w 162 -161 -141 0
w 163 162 142 1
w 163 162 -142 0
w 163 -162 142 1
w 163 -162 -142 1
w 164 163 143 0
w 164 163 -143 0
w 164 -163 143 1
w 164 -163 -143 1
w 165 164 144 1
w 165 164 -144 1
w 165 -164 144 0
w 165 -164 -144 0
w 166 165 145 0
w 166 165 -145 1
w 166 -165 145 0
w 166 -165 -145 0
w 167 166 146 0
w 167 166 -146 1
w 167 -166 146 0
w 167 -166 -146 1
w 168 167 147 0
w 168 167 -147 0
w 168 -167 147 1
w 168 -167 -147 1
w 169 148 0.351828
w 169 -148 0.0166054
w 170 169 149 0
w 170 169 -149 1
w 170 -169 149 0
w 170 -169 -149 0
w 171 170 150 1
w 171 170 -150 0
w 171 -170 150 0
w 171 -170 -150 0
w 172 171 151 0
w 172 171 -151 0
w 172 -171 151 1
w 172 -171 -151 1
w 173 172 152 1
w 173 172 -152 1
w 173 -172 152 0
w 173 -172 -152 1
w 174 173 153 0
w 174 173 -153 0
w 174 -173 153 0
w 174 -173 -153 1
w 175 174 154 1
w 175 174 -154 0
w 175 -174 154 1
w 175 -174 -154 0
w 176 175 155 0
w 176 175 -155 1
w 176 -175 155 1
w 176 -175 -155 0
w 177 176 156 0.370202
w 177 176 -156 0.810755
w 177 -176 156 0.112709
w 177 -176 -156 0.389219
w 178 177 157 1
w 178 177 -157 0
w 178 -177 157 0
w 178 -177 -157 0
w 179 178 158 0.960991
w 179 178 -158 0.301542
w 179 -178 158 0.18499
w 179 -178 -158 0.721974
w 180 179 159 0
w 180 179 -159 1
w 180 -179 159 0
w 180 -179 -159 0
w 181 180 160 1
w 181 180 -160 1
w 181 -180 160 1
w 181 -180 -160 0
w 182 181 161 0
w 182 181 -161 1
w 182 -181 161 0
w 182 -181 -161 0
w 183 182 162 0
w 183 182 -162 0
w 183 -182 162 0
w 183 -182 -162 1
w 184 183 163 1
w 184 183 -163 1
w 184 -183 163 0
w 184 -183 -163 1
w 185 184 164 0.470685
w 185 184 -164 0.682307
w 185 -184 164 0.631242
w 185 -184 -164 0.814427
w 186 185 165 0
w 186 185 -165 1
w 186 -185 165 0
w 186 -185 -165 1
w 187 186 166 0
w 187 186 -166 0
w 187 -186 166 1
w 187 -186 -166 0
w 188 187 167 1
w 188 187 -167 1
w 188 -187 167 0
w 188 -187 -167 1
w 189 188 168 0
w 189 188 -168 1
w 189 -188 168 1
w 189 -188 -168 1
w 190 169 0.200949
w 190 -169 0.669664
w 191 190 170 0.370092
w 191 190 -170 0.16698
w 191 -190 170 0.814722
w 191 -190 -170 0.840777
w 192 191 171 0.445964
w 192 191 -171 0.655205
w 192 -191 171 0.305644
w 192 -191 -171 0.189859
w 193 192 172 0.343045
w 193 192 -172 0.471233
w 193 -192 172 0.622189
w 193 -192 -172 0.341404
w 194 193 173 0
w 194 193 -173 1
w 194 -193 173 0
w 194 -193 -173 1
w 195 194 174 0
w 195 194 -174 0
w 195 -194 174 1
w 195 -194 -174 0
w 196 195 175 1
w 196 195 -175 1
w 196 -195 175 0
w 196 -195 -175 1
w 197 196 176 1
w 197 196 -176 0
w 197 -196 176 1
w 197 -196 -176 1
w 198 197 177 0.472609
w 198 197 -177 0.992503
w 198 -197 177 0.192383
w 198 -197 -177 0.662468
w 199 198 178 0.535428
w 199 198 -178 0.133701
w 199 -198 178 0.521014
w 199 -198 -178 0.876831
w 200 199 179 0
w 200 199 -179 1
w 200 -199 179 0
w 200 -199 -179 1
w 201 200 180 0
w 201 200 -180 1
w 201 -200 180 1
w 201 -200 -180 0
w 202 201 181 0
w 202 201 -181 1
w 202 -201 181 0
w 202 -201 -181 1
w 203 202 182 0
w 203 202 -182 1
w 203 -202 182 0
w 203 -202 -182 1
w 204 203 183 0
w 204 203 -183 0
w 204 -203 183 1
w 204 -203 -183 0
w 205 204 184 0.21039
w 205 204 -184 0.369437
w 205 -204 184 0.0776777
w 205 -204 -184 0.731404
w 206 205 185 1
w 206 205 -185 0
w 206 -205 185 0
w 206 -205 -185 1
w 207 206 186 1
w 207 206 -186 1
w 207 -206 186 1
w 207 -206 -186 0
w 208 207 187 0
w 208 207 -187 0
w 208 -207 187 0
w 208 -207 -187 1
w 209 208 188 0.918458
w 209 208 -188 0.11193
w 209 -208 188 0.955987
w 209 -208 -188 0.673344
w 210 209 189 0.27505
w 210 209 -189 0.31497
w 210 -209 189 0.202338
w 210 -209 -189 0.586615
w 211 190 1
w 211 -190 0
w 212 211 191 0.518417
w 212 211 -191 0.223992
w 212 -211 191 0.52841
w 212 -211 -191 0.764686
w 213 212 192 0
w 213 212 -192 1
w 213 -212 192 0
w 213 -212 -192 1
w 214 213 193 1
w 214 213 -193 0
w 214 -213 193 1
w 214 -213 -193 0
w 215 214 194 0
w 215 214 -194 1
w 215 -214 194 0
w 215 -214 -194 0
w 216 215 195 1
w 216 215 -195 1
w 216 -215 195 0
w 216 -215 -195 1
w 217 216 196 0
w 217 216 -196 1
w 217 -216 196 0
w 217 -216 -196 1
w 218 217 197 1
w 218 217 -197 0
w 218 -217 197 1
w 218 -217 -197 1
w 219 218 198 0.382228
w 219 218 -198 0.954607
w 219 -218 198 0.829874
w 219 -218 -198 0.690002
w 220 219 199 0
w 220 219 -199 0
w 220 -219 199 1
w 220 -219 -199 0
w 221 220 200 0
w 221 220 -200 0
w 221 -220 200 1
w 221 -220 -200 0
w 222 221 201 1
w 222 221 -201 1
w 222 -221 201 1
w 222 -221 -201 0
w 223 222 202 0
w 223 222 -202 1
w 223 -222 202 1
w 223 -222 -202 1
w 224 223 203 0.10193
w 224 223 -203 0.547006
w 224 -223 203 0.21656
w 224 -223 -203 0.455437
w 225 224 204 1
w 225 224 -204 1
w 225 -224 204 1
w 225 -224 -204 0
w 226 225 205 0
w 226 225 -205 0
w 226 -225 205 0
w 226 -225 -205 1
w 227 226 206 0
w 227 226 -206 1
w 227 -226 206 0
w 227 -226 -206 0
w 228 227 207 0.524993
w 228 227 -207 0.806151
w 228 -227 207 0.149542
w 228 -227 -207 0.220127
w 229 228 208 0
w 229 228 -208 0
w 229 -228 208 1
w 229 -228 -208 0
w 230 229 209 0.433656
w 230 229 -209 0.874159
w 230 -229 209 0.978073
w 230 -229 -209 0.889092
w 231 230 210 1
w 231 230 -210 0
w 231 -230 210 1
w 231 -230 -210 1
w 232 211 0
w 232 -211 1
w 233 232 212 1
w 233 232 -212 1
w 233 -232 212 0
w 233 -232 -212 1
w 234 233 213 0
w 234 233 -213 1
w 234 -233 213 0
w 234 -233 -213 0
w 235 234 214 0
w 235 234 -214 1
w 235 -234 214 0
w 235 -234 -214 1
w 236 235 215 0
w 236 235 -215 1
w 236 -235 215 0
w 236 -235 -215 0
w 237 236 216 0.848928
w 237 236 -216 0.15084
w 237 -236 216 0.104415
w 237 -236 -216 0.425788
w 238 237 217 0
w 238 237 -217 1
w 238 -237 217 1
w 238 -237 -217 0
w 239 238 218 1
w 239 238 -218 1
w 239 -238 218 1
w 239 -238 -218 0
w 240 239 219 1
w 240 239 -219 0
w 240 -239 219 0
w 240 -239 -219 1
w 241 240 220 0
w 241 240 -220 1
w 241 -240 220 1
w 241 -240 -220 1
w 242 241 221 1
w 242 241 -221 0
w 242 -241 221 1
w 242 -241 -221 0
w 243 242 222 1
w 243 242 -222 1
w 243 -242 222 0
w 243 -242 -222 1
w 244 243 223 1
w 244 243 -223 1
w 244 -243 223 0
w 244 -243 -223 1
w 245 244 224 0
w 245 244 -224 1
w 245 -244 224 1
w 245 -244 -224 1
w 246 245 225 0
w 246 245 -225 0
w 246 -245 225 1
w 246 -245 -225 0
w 247 246 226 0
w 247 246 -226 1
w 247 -246 226 0
w 247 -246 -226 1
w 248 247 227 0.990484
w 248 247 -227 0.327471
w 248 -247 227 0.765736
w 248 -247 -227 0.640777
w 249 248 228 0
w 249 248 -228 1
w 249 -248 228 0
w 249 -248 -228 0
w 250 249 229 1
w 250 249 -229 1
w 250 -249 229 1
w 250 -249 -229 0
w 251 250 230 0.289095
w 251 250 -230 0.996301
w 251 -250 230 0.537307
w 251 -250 -230 0.658849
w 252 251 231 0
w 252 251 -231 1
w 252 -251 231 0
w 252 -251 -231 0
w 253 232 1
w 253 -232 0
w 254 253 233 0
w 254 253 -233 1
w 254 -253 233 1
w 254 -253 -233 0
w 255 254 234 0.491333
w 255 254 -234 0.103679
w 255 -254 234 0.603173
w 255 -254 -234 0.936856
w 256 255 235 0
w 256 255 -235 1
w 256 -255 235 1
w 256 -255 -235 1
w 257 256 236 1
w 257 256 -236 0
w 257 -256 236 0
w 257 -256 -236 0
w 258 257 237 0.903297
w 258 257 -237 0.925944
w 258 -257 237 0.193209
w 258 -257 -237 0.880608
w 259 258 238 0
w 259 258 -238 1
w 259 -258 238 0
w 259 -258 -238 1
w 260 259 239 0
w 260 259 -239 1
w 260 -259 239 1
w 260 -259 -239 0
w 261 260 240 0.359362
w 261 260 -240 0.323702
w 261 -260 240 0.429148
w 261 -260 -240 0.296217
w 262 261 241 0.474231
w 262 261 -241 0.901063
w 262 -261 241 0.301561
w 262 -261 -241 0.212334
w 263 262 242 1
w 263 262 -242 0
w 263 -262 242 0
w 263 -262 -242 1
w 264 263 243 1
w 264 263 -243 0
w 264 -263 243 0
w 264 -263 -243 1
w 265 264 244 0.10584
w 265 264 -244 0.520922
w 265 -264 244 0.515751
w 265 -264 -244 0.502765
w 266 265 245 0
w 266 265 -245 1
w 266 -265 245 0
w 266 -265 -245 1
w 267 266 246 1
w 267 266 -246 0
w 267 -266 246 1
w 267 -266 -246 1
w 268 267 247 0
w 268 267 -247 1
w 268 -267 247 0
w 268 -267 -247 0
w 269 268 248 0
w 269 268 -248 1
w 269 -268 248 1
w 269 -268 -248 1
w 270 269 249 1
w 270 269 -249 0
w 270 -269 249 0
w 270 -269 -249 1
w 271 270 250 0
w 271 270 -250 1
w 271 -270 250 1
w 271 -270 -250 1
w 272 271 251 0.465316
w 272 271 -251 0.0760005
w 272 -271 251 0.242454
w 272 -271 -251 0.741486
w 273 272 252 0
w 273 272 -252 0
w 273 -272 252 1
w 273 -272 -252 1
w 274 253 0
w 274 -253 1
w 275 274 254 1
w 275 274 -254 0
w 275 -274 254 0
w 275 -274 -254 0
w 276 275 255 0.872223
w 276 275 -255 0.00650795
w 276 -275 255 0.488598
w 276 -275 -255 0.108355
w 277 276 256 0.0211763
w 277 276 -256 0.456283
w 277 -276 256 0.121138
w 277 -276 -256 0.55298
w 278 277 257 0.47598
w 278 277 -257 0.605706
w 278 -277 257 0.652696
w 278 -277 -257 0.333588
w 279 278 258 1
w 279 278 -258 0
w 279 -278 258 1
w 279 -278 -258 0
w 280 279 259 0
w 280 279 -259 1
w 280 -279 259 0
w 280 -279 -259 1
w 281 280 260 0.858723
w 281 280 -260 0.411517
w 281 -280 260 0.858057
w 281 -280 -260 0.703311
w 282 281 261 1
w 282 281 -261 1
w 282 -281 261 1
w 282 -281 -261 0
w 283 282 262 0.129869
w 283 282 -262 0.140172
w 283 -282 262 0.00961059
w 283 -282 -262 0.682849
w 284 283 263 0.485591
w 284 283 -263 0.288555
w 284 -283 263 0.589481
w 284 -283 -263 0.819179
w 285 284 264 0
w 285 284 -264 1
w 285 -284 264 1
w 285 -284 -264 0
w 286 285 265 0.828223
w 286 285 -265 0.714723
w 286 -285 265 0.0178488
w 286 -285 -265 0.859288
w 287 286 266 1
w 287 286 -266 1
w 287 -286 266 1
w 287 -286 -266 0
w 288 287 267 0
w 288 287 -267 1
w 288 -287 267 1
w 288 -287 -267 1
w 289 288 268 0.185446
w 289 288 -268 0.29012
w 289 -288 268 0.979479
w 289 -288 -268 0.195056
w 290 289 269 0.916264
w 290 289 -269 0.680647
w 290 -289 269 0.261524
w 290 -289 -269 0.505746
w 291 290 270 1
w 291 290 -270 0
w 291 -290 270 1
w 291 -290 -270 0
w 292 291 271 1
w 292 291 -271 1
w 292 -291 271 0
w 292 -291 -271 0
w 293 292 272 1
w 293 292 -272 1
w 293 -292 272 1
w 293 -292 -272 0
w 294 293 273 0
w 294 293 -273 0
w 294 -293 273 1
w 294 -293 -273 1
w 295 274 0.182663
w 295 -274 0.514553
w 296 295 275 0
w 296 295 -275 1
w 296 -295 275 1
w 296 -295 -275 0
w 297 296 276 1
w 297 296 -276 0
w 297 -296 276 1
w 297 -296 -276 1
w 298 297 277 0.905044
w 298 297 -277 0.44282
w 298 -297 277 0.498766
w 298 -297 -277 0.52645
w 299 298 278 0
w 299 298 -278 1
w 299 -298 278 1
w 299 -298 -278 0
w 300 299 279 0.269501
w 300 299 -279 0.0262456
w 300 -299 279 0.790778
w 300 -299 -279 0.0753977
w 301 300 280 0
w 301 300 -280 0
w 301 -300 280 1
w 301 -300 -280 0
w 302 301 281 1
w 302 301 -281 1
w 302 -301 281 0
w 302 -301 -281 1
w 303 302 282 0
w 303 302 -282 1
w 303 -302 282 0
w 303 -302 -282 1
w 304 303 283 0.409517
w 304 303 -283 0.034716
w 304 -303 283 0.227857
w 304 -303 -283 0.908283
w 305 304 284 0
w 305 304 -284 1
w 305 -304 284 0
w 305 -304 -284 1
w 306 305 285 0.326953
w 306 305 -285 0.204808
w 306 -305 285 0.00308567
w 306 -305 -285 0.117731
w 307 306 286 1
w 307 306 -286 1
w 307 -306 286 1
w 307 -306 -286 0
w 308 307 287 0.619564
w 308 307 -287 0.639359
w 308 -307 287 0.2161
w 308 -307 -287 0.146614
w 309 308 288 1
w 309 308 -288 1
w 309 -308 288 0
w 309 -308 -288 1
w 310 309 289 1
w 310 309 -289 0
w 310 -309 289 0
w 310 -309 -289 1
w 311 310 290 0.889979
w 311 310 -290 0.242173
w 311 -310 290 0.0311218
w 311 -310 -290 0.458289
w 312 311 291 0
w 312 311 -291 1
w 312 -311 291 0
w 312 -311 -291 1
w 313 312 292 0.662495
w 313 312 -292 0.383735
w 313 -312 292 0.140588
w 313 -312 -292 0.984246
w 314 313 293 0
w 314 313 -293 1
w 314 -313 293 1
w 314 -313 -293 0
w 315 314 294 0.380218
w 315 314 -294 0.179144
w 315 -314 294 0.91485
w 315 -314 -294 0.189352
w 316 295 0.208946
w 316 -295 0.783524
w 317 316 296 0
w 317 316 -296 1
w 317 -316 296 1
w 317 -316 -296 0
w 318 317 297 0.661948
w 318 317 -297 0.886027
w 318 -317 297 0.0252059
w 318 -317 -297 0.66991
w 319 318 298 1
w 319 318 -298 1
w 319 -318 298 1
w 319 -318 -298 0
w 320 319 299 0
w 320 319 -299 1
w 320 -319 299 1
w 320 -319 -299 0
w 321 320 300 0
w 321 320 -300 1
w 321 -320 300 1
w 321 -320 -300 0
w 322 321 301 1
w 322 321 -301 1
w 322 -321 301 1
w 322 -321 -301 0
w 323 322 302 1
w 323 322 -302 0
w 323 -322 302 1
w 323 -322 -302 1
w 324 323 303 0
w 324 323 -303 1
w 324 -323 303 1
w 324 -323 -303 1
w 325 324 304 0
w 325 324 -304 0
w 325 -324 304 0
w 325 -324 -304 1
w 326 325 305 0
w 326 325 -305 0
w 326 -325 305 1
w 326 -325 -305 1
w 327 326 306 1
w 327 326 -306 0
w 327 -326 306 1
w 327 -326 -306 0
w 328 327 307 0
w 328 327 -307 1
w 328 -327 307 1
w 328 -327 -307 0
w 329 328 308 1
w 329 328 -308 1
w 329 -328 308 0
w 329 -328 -308 0
w 330 329 309 0
w 330 329 -309 1
w 330 -329 309 0
w 330 -329 -309 0
w 331 330 310 1
w 331 330 -310 0
w 331 -330 310 0
w 331 -330 -310 1
w 332 331 311 1
w 332 331 -311 1
w 332 -331 311 0
w 332 -331 -311 0
w 333 332 312 1
w 333 332 -312 0
w 333 -332 312 0
w 333 -332 -312 0
w 334 333 313 1
w 334 333 -313 0
w 334 -333 313 1
w 334 -333 -313 0
w 335 334 314 0
w 335 334 -314 1
w 335 -334 314 0
w 335 -334 -314 0
w 336 335 315 1
w 336 335 -315 1
w 336 -335 315 0
w 336 -335 -315 0
w 337 316 0
w 337 -316 1
w 338 337 317 1
w 338 337 -317 1
w 338 -337 317 0
w 338 -337 -317 1
w 339 338 318 1
w 339 338 -318 1
w 339 -338 318 0
w 339 -338 -318 0
w 340 339 319 0.164663
w 340 339 -319 0.707587
w 340 -339 319 0.700511
w 340 -339 -319 0.69278
w 341 340 320 1
w 341 340 -320 0
w 341 -340 320 0
w 341 -340 -320 0
w 342 341 321 1
w 342 341 -321 0
w 342 -341 321 1
w 342 -341 -321 1
w 343 342 322 0
w 343 342 -322 1
w 343 -342 322 0
w 343 -342 -322 1
w 344 343 323 0.113977
w 344 343 -323 0.655878
w 344 -343 323 0.315861
w 344 -343 -323 0.889856
w 345 344 324 1
w 345 344 -324 0
w 345 -344 324 0
w 345 -344 -324 1
w 346 345 325 1
w 346 345 -325 0
w 346 -345 325 1
w 346 -345 -325 0
w 347 346 326 0
w 347 346 -326 1
w 347 -346 326 0
w 347 -346 -326 0
w 348 347 327 0.28357
w 348 347 -327 0.0385799
w 348 -347 327 0.100588
w 348 -347 -327 0.604209
w 349 348 328 0
w 349 348 -328 1
w 349 -348 328 0
w 349 -348 -328 0
w 350 349 329 1
w 350 349 -329 1
w 350 -349 329 1
w 350 -349 -329 0
w 351 350 330 0
w 351 350 -330 1
w 351 -350 330 1
w 351 -350 -330 0
w 352 351 331 0.569658
w 352 351 -331 0.285108
w 352 -351 331 0.854497
w 352 -351 -331 0.653519
w 353 352 332 1
w 353 352 -332 0
w 353 -352 332 1
w 353 -352 -332 1
w 354 353 333 0
w 354 353 -333 1
w 354 -353 333 0
w 354 -353 -333 0
w 355 354 334 1
w 355 354 -334 0
w 355 -354 334 1
w 355 -354 -334 1
w 356 355 335 1
w 356 355 -335 1
w 356 -355 335 0
w 356 -355 -335 1
w 357 356 336 1
w 357 356 -336 1
w 357 -356 336 0
w 357 -356 -336 1
w 358 337 0.621763
w 358 -337 0.659105
w 359 358 338 0
w 359 358 -338 0
w 359 -358 338 0
w 359 -358 -338 1
w 360 359 339 1
w 360 359 -339 1
w 360 -359 339 0
w 360 -359 -339 1
w 361 360 340 0
w 361 360 -340 1
w 361 -360 340 1
w 361 -360 -340 1
w 362 361 341 0.287497
w 362 361 -341 0.387548
w 362 -361 341 0.26354
w 362 -361 -341 0.164777
w 363 362 342 0
w 363 362 -342 0
w 363 -362 342 1
w 363 -362 -342 0
w 364 363 343 0
w 364 363 -343 1
w 364 -363 343 1
w 364 -363 -343 0
w 365 364 344 1
w 365 364 -344 0
w 365 -364 344 0
w 365 -364 -344 1
w 366 365 345 0
w 366 365 -345 0
w 366 -365 345 1
w 366 -365 -345 0
w 367 366 346 1
w 367 366 -346 1
w 367 -366 346 0
w 367 -366 -346 0
w 368 367 347 0.0967486
w 368 367 -347 0.0114815
w 368 -367 347 0.370122
w 368 -367 -347 0.360289
w 369 368 348 1
w 369 368 -348 1
w 369 -368 348 0
w 369 -368 -348 1
w 370 369 349 0
w 370 369 -349 1
w 370 -369 349 0
w 370 -369 -349 0
w 371 370 350 1
w 371 370 -350 1
w 371 -370 350 0
w 371 -370 -350 1
w 372 371 351 0.439602
w 372 371 -351 0.589033
w 372 -371 351 0.261188
w 372 -371 -351 0.344052
w 373 372 352 0
w 373 372 -352 1
w 373 -372 352 1
w 373 -372 -352 0
w 374 373 353 0
w 374 373 -353 1
w 374 -373 353 1
w 374 -373 -353 1
w 375 374 354 1
w 375 374 -354 0
w 375 -374 354 1
w 375 -374 -354 0
w 376 375 355 0
w 376 375 -355 1
w 376 -375 355 0
w 376 -375 -355 0
w 377 376 356 0.927484
w 377 376 -356 0.604866
w 377 -376 356 0.680096
w 377 -376 -356 0.257647
w 378 377 357 0.624847
w 378 377 -357 0.697249
w 378 -377 357 0.426525
w 378 -377 -357 0.886035
w 379 358 0
w 379 -358 1
w 380 379 359 1
w 380 379 -359 1
w 380 -379 359 0
w 380 -379 -359 1
w 381 380 360 1
w 381 380 -360 0
w 381 -380 360 0
w 381 -380 -360 0
w 382 381 361 0
w 382 381 -361 1
w 382 -381 361 1
w 382 -381 -361 0
w 383 382 362 0.623544
w 383 382 -362 0.39587
w 383 -382 362 0.634061
w 383 -382 -362 0.415343
w 384 383 363 0
w 384 383 -363 0
w 384 -383 363 1
w 384 -383 -363 1
w 385 384 364 0
w 385 384 -364 0
w 385 -384 364 1
w 385 -384 -364 0
w 386 385 365 0.646469
w 386 385 -365 0.450924
w 386 -385 365 0.902925
w 386 -385 -365 0.24158
w 387 386 366 1
w 387 386 -366 0
w 387 -386 366 0
w 387 -386 -366 1
w 388 387 367 0.136555
w 388 387 -367 0.719033
w 388 -387 367 0.440491
w 388 -387 -367 0.479162
w 389 388 368 0
w 389 388 -368 0
w 389 -388 368 1
w 389 -388 -368 0
w 390 389 369 0
w 390 389 -369 0
w 390 -389 369 0
w 390 -389 -369 1
w 391 390 370 1
w 391 390 -370 0
w 391 -390 370 0
w 391 -390 -370 1
w 392 391 371 1
w 392 391 -371 0
w 392 -391 371 0
w 392 -391 -371 0
w 393 392 372 1
w 393 392 -372 0
w 393 -392 372 1
w 393 -392 -372 0
w 394 393 373 0
w 394 393 -373 0
w 394 -393 373 0
w 394 -393 -373 1
w 395 394 374 0
w 395 394 -374 0
w 395 -394 374 0
w 395 -394 -374 1
w 396 395 375 1
w 396 395 -375 1
w 396 -395 375 1
w 396 -395 -375 0
w 397 396 376 0.806134
w 397 396 -376 0.403062
w 397 -396 376 0.326691
w 397 -396 -376 0.490502
w 398 397 377 1
w 398 397 -377 0
w 398 -397 377 0
w 398 -397 -377 1
w 399 398 378 0.239753
w 399 398 -378 0.355832
w 399 -398 378 0.356163
w 399 -398 -378 0.225836
w 400 379 1
w 400 -379 0
w 401 400 380 0.0919699
w 401 400 -380 0.955115
w 401 -400 380 0.274513
w 401 -400 -380 0.244319
w 402 401 381 0.890576
w 402 401 -381 0.876044
w 402 -401 381 0.98168
w 402 -401 -381 0.0180692
w 403 402 382 1
w 403 402 -382 0
w 403 -402 382 0
w 403 -402 -382 0
w 404 403 383 1
w 404 403 -383 1
w 404 -403 383 1
w 404 -403 -383 0
w 405 404 384 0
w 405 404 -384 0
w 405 -404 384 0
w 405 -404 -384 1
w 406 405 385 1
w 406 405 -385 0
w 406 -405 385 1
w 406 -405 -385 1
w 407 406 386 0
w 407 406 -386 1
w 407 -406 386 0
w 407 -406 -386 1
w 408 407 387 1
w 408 407 -387 1
w 408 -407 387 0
w 408 -407 -387 1
w 409 408 388 0
w 409 408 -388 1
w 409 -408 388 0
w 409 -408 -388 0
w 410 409 389 0
w 410 409 -389 1
w 410 -409 389 0
w 410 -409 -389 1
w 411 410 390 0
w 411 410 -390 1
w 411 -410 390 1
w 411 -410 -390 1
w 412 411 391 0
w 412 411 -391 0
w 412 -411 391 1
w 412 -411 -391 1
w 413 412 392 0
w 413 412 -392 1
w 413 -412 392 1
w 413 -412 -392 0
w 414 413 393 1
w 414 413 -393 1
w 414 -413 393 0
w 414 -413 -393 1
w 415 414 394 1
w 415 414 -394 0
w 415 -414 394 0
w 415 -414 -394 0
w 416 415 395 1
w 416 415 -395 0
w 416 -415 395 1
w 416 -415 -395 0
w 417 416 396 1
w 417 416 -396 1
w 417 -416 396 0
w 417 -416 -396 1
w 418 417 397 0.192413
w 418 417 -397 0.0147207
w 418 -417 397 0.521059
w 418 -417 -397 0.399744
w 419 418 398 1
w 419 418 -398 1
w 419 -418 398 0
w 419 -418 -398 1
w 420 419 399 1
w 420 419 -399 1
w 420 -419 399 1
w 420 -419 -399 0
w 421 400 1
w 421 -400 0
w 422 421 401 1
w 422 421 -401 0
w 422 -421 401 1
w 422 -421 -401 0
w 423 422 402 1
w 423 422 -402 0
w 423 -422 402 0
w 423 -422 -402 1
w 424 423 403 0
w 424 423 -403 1
w 424 -423 403 1
w 424 -423 -403 1
w 425 424 404 0.198312
w 425 424 -404 0.460054
w 425 -424 404 0.71879
w 425 -424 -404 0.310037
w 426 425 405 0
w 426 425 -405 1
w 426 -425 405 0
w 426 -425 -405 1
w 427 426 406 1
w 427 426 -406 1
w 427 -426 406 1
w 427 -426 -406 0
w 428 427 407 1
w 428 427 -407 0
w 428 -427 407 1
w 428 -427 -407 1
w 429 428 408 1
w 429 428 -408 1
w 429 -428 408 0
w 429 -428 -408 0
w 430 429 409 0
w 430 429 -409 1
w 430 -429 409 1
w 430 -429 -409 1
w 431 430 410 0
w 431 430 -410 1
w 431 -430 410 1
w 431 -430 -410 0
w 432 431 411 0.613402
w 432 431 -411 0.834796
w 432 -431 411 0.375125
w 432 -431 -411 0.973701
w 433 432 412 0
w 433 432 -412 1
w 433 -432 412 0
w 433 -432 -412 0
w 434 433 413 0.806276
w 434 433 -413 0.463154
w 434 -433 413 0.256454
w 434 -433 -413 0.9343
w 435 434 414 0
w 435 434 -414 1
w 435 -434 414 1
w 435 -434 -414 0
w 436 435 415 1
w 436 435 -415 0
w 436 -435 415 0
w 436 -435 -415 0
w 437 436 416 0
w 437 436 -416 0
w 437 -436 416 1
w 437 -436 -416 1
w 438 437 417 0
w 438 437 -417 1
w 438 -437 417 0
w 438 -437 -417 0
w 439 438 418 1
w 439 438 -418 0
w 439 -438 418 0
w 439 -438 -418 0
w 440 439 419 0.459382
w 440 439 -419 0.727327
w 440 -439 419 0.152581
w 440 -439 -419 0.393682
w 441 440 420 1
w 441 440 -420 1
w 441 -440 420 1
w 441 -440 -420 0